input_door = [| 5 , 7 |];
output_door = [| 2 , 10 |];
n = 10;
edificio = 
[| 0, 0, 1, 0, 1, 0, 1, 1, 0, 0, 
| 0, 0, 0, 1, 0, 1, 1, 0, 0, 3, 
| 0, 1, 0, 0, 0, 1, 1, 0, 0, 1, 
| 0, 0, 0, 0, 0, 0, 1, 1, 0, 0, 
| 0, 1, 0, 0, 0, 0, 2, 1, 1, 0, 
| 0, 0, 0, 0, 0, 0, 0, 0, 0, 0, 
| 1, 0, 0, 0, 0, 0, 0, 0, 0, 1, 
| 0, 0, 1, 0, 0, 0, 0, 0, 0, 0, 
| 0, 0, 0, 0, 0, 0, 0, 0, 1, 0, 
| 1, 0, 0, 1, 0, 1, 0, 0, 0, 0 |];
